Route #1: 1 28 12 11 29 48 32 9 1 
Route #2: 1 1 43 25 33 52 42 57 1 
Route #3: 1 15 53 20 19 23 8 5 7 1 
Route #4: 1 30 55 4 50 40 36 44 14 1 
Route #5: 1 27 35 26 39 49 31 59 34 45 17 1 
Route #6: 1 62 37 51 13 41 1 
Route #7: 1 22 18 38 10 61 3 1 
Route #8: 1 21 54 63 47 46 16 60 24 1 
Route #9: 1 6 56 2 58 1 

Cost 1820.75
Time 0.5641


 * Another infos *

 Iterations: 64 Time: 0.5641 sec - 0.0094 min - 0.0002 horas
0.0000 h 0.0094 min
Problem dimension: 64
